100 8
575 198
317 549
892 657
238 645
966 927
466 689
533 447
566 268
187 151
235 333
568 380
613 378
552 400
476 522
623 682
680 407
858 922
187 628
599 169
543 885
151 112
191 527
405 68
130 737
491 695
609 361
671 550
441 642
353 185
183 696
141 129
149 574
550 295
606 341
588 651
198 753
230 629
805 642
844 614
376 228
664 263
545 437
417 243
92 657
578 475
233 701
490 424
41 729
314 107
340 141
299 526
849 572
747 691
168 656
867 547
625 885
280 584
814 577
372 551
858 504
636 414
520 872
516 414
579 409
494 223
540 828
592 297
831 496
100 623
659 372
617 732
561 441
207 308
829 865
521 352
478 731
412 395
502 587
640 419
582 396
260 707
251 371
589 731
430 176
474 546
553 272
179 614
112 277
857 503
481 656
462 536
779 580
698 286
531 773
196 733
550 213
162 352
462 436
764 566
545 312
